benchmarks/bfuzz0/197548169145259766681420421537226641.smt2
(set-logic QF_FP)
(declare-const x0 (_ FloatingPoint 8 24))
(declare-const x1 (_ FloatingPoint 8 24))
(declare-const x2 (_ FloatingPoint 8 24))
(declare-const x3 (_ FloatingPoint 8 24))
(declare-const x4 (_ FloatingPoint 8 24))
(declare-const x5 (_ FloatingPoint 8 24))
(declare-const x6 (_ FloatingPoint 8 24))
(declare-const x7 (_ FloatingPoint 8 24))
(declare-const x8 (_ FloatingPoint 8 24))
(declare-const x9 (_ FloatingPoint 8 24))
(declare-const x10 (_ FloatingPoint 8 24))
(declare-const x11 (_ FloatingPoint 8 24))
(declare-const x12 (_ FloatingPoint 8 24))
(declare-const x13 (_ FloatingPoint 8 24))
(declare-const x14 (_ FloatingPoint 8 24))
(declare-const x15 (_ FloatingPoint 8 24))
(assert (fp.geq (fp.add RNE x8 x10) (fp.div RNE x9 x15)))
(assert (fp.lt (fp.add RNE x5 x10) (fp.sub RNE x2 x9)))
(assert (fp.leq (fp.sub RNE x5 x0) (fp.sub RNE x4 x1)))
(assert (fp.geq (fp.neg x1) (fp.div RNE x13 x7)))
(assert (fp.lt (fp.div RNE x1 x4) (fp.div RNE x10 x12)))
(assert (fp.leq (fp.mul RNE x14 x7) (fp.mul RNE x7 x13)))
(assert (fp.gt (fp.add RNE x15 x1) (fp.sub RNE x5 x5)))
(assert (fp.eq (fp.add RNE x3 x10) (fp.add RNE x4 x7)))
(assert (fp.leq (fp.mul RNE x11 x0) (fp.div RNE x9 x5)))
(assert (fp.lt (fp.div RNE x15 x4) (fp.add RNE x0 x2)))
(assert (fp.gt (fp.div RNE x6 x13) (fp.sub RNE x2 x6)))
(assert (fp.leq (fp.neg x0) (fp.mul RNE x0 x1)))
(assert (fp.gt (fp.add RNE x5 x3) (fp.neg x5)))
(assert (fp.gt (fp.sub RNE x8 x11) (fp.neg x15)))
(assert (fp.eq (fp.sub RNE x11 x6) (fp.add RNE x10 x3)))
(assert (fp.lt (fp.sub RNE x14 x9) (fp.neg x9)))
(assert (fp.eq (fp.div RNE x5 x15) (fp.add RNE x8 x9)))
(assert (fp.geq (fp.neg x8) (fp.mul RNE x1 x10)))
(assert (fp.lt (fp.mul RNE x13 x4) (fp.add RNE x1 x14)))
(check-sat)
