db/data/197548169145259766681420421537226641.z3.out
sat
-------------------
586.862527108
